c defined variables: 19 20 21 22 23 24 25 26 27 28 29 30 31 32 33 34 35 36 37 40 41 42 45 48 49 50 51 52 53 54 55 56 57 58 59 60 61 62 63 64 65 66 67 68 69 70 71 72 73 74 75 76 77 78 79 80 81 82 83 84 85 86 87 88 89 90 91 92 93 94 95 96 97 98 
p cnf 408 591
a 4 5 6 7 8 9 10 11 12 13 14 15 16 0
e 38 39 43 44 46 47 19 20 21 22 23 24 25 26 27 28 29 30 31 32 33 34 35 36 37 40 41 42 45 48 49 50 51 52 53 54 55 56 57 58 59 60 61 62 63 64 65 66 67 68 69 70 71 72 73 74 75 76 77 78 79 80 81 82 83 84 85 86 87 88 89 90 91 92 93 94 95 96 97 98 341 342 343 344 345 346 347 348 349 350 351 352 353 354 355 356 357 358 359 360 361 362 363 364 365 366 367 368 369 370 371 372 373 374 375 376 377 378 379 380 381 382 383 384 385 386 387 388 389 390 391 392 393 394 395 396 397 398 399 400 401 402 403 404 405 406 407 408 0
d 1 4 5 6 7 8 9 10 11 0
d 2 4 5 6 7 8 9 10 11 0
d 3 4 5 6 7 8 9 10 11 0
d 17 7 8 9 10 11 0
d 18 12 13 14 15 16 0
342 -19 0
-342 19 0
343 -20 0
-343 20 0
344 -21 0
-344 21 0
345 -22 0
-345 22 0
346 -23 0
-346 23 0
347 -24 0
-347 24 0
348 -25 0
-348 25 0
349 -26 0
-349 26 0
350 -27 0
-350 27 0
351 -28 0
-351 28 0
352 -29 0
-352 29 0
353 -30 0
-353 30 0
354 -31 0
-354 31 0
355 -32 0
-355 32 0
356 -33 0
-356 33 0
357 -34 0
-357 34 0
358 -35 0
-358 35 0
359 -36 0
-359 36 0
360 -37 0
-360 37 0
361 -40 0
-361 40 0
-341 -41 0
341 41 0
362 -42 0
-362 42 0
363 -45 0
-363 45 0
364 -48 0
-364 48 0
365 -49 0
-365 49 0
366 -50 0
-366 50 0
367 -51 0
-367 51 0
368 -52 0
-368 52 0
369 -53 0
-369 53 0
370 -54 0
-370 54 0
371 -55 0
-371 55 0
372 -56 0
-372 56 0
373 -57 0
-373 57 0
374 -58 0
-374 58 0
375 -59 0
-375 59 0
376 -60 0
-376 60 0
377 -61 0
-377 61 0
378 -62 0
-378 62 0
379 -63 0
-379 63 0
380 -64 0
-380 64 0
381 -65 0
-381 65 0
382 -66 0
-382 66 0
383 -67 0
-383 67 0
384 -68 0
-384 68 0
385 -69 0
-385 69 0
386 -70 0
-386 70 0
387 -71 0
-387 71 0
388 -72 0
-388 72 0
389 -73 0
-389 73 0
390 -74 0
-390 74 0
391 -75 0
-391 75 0
392 -76 0
-392 76 0
393 -77 0
-393 77 0
394 -78 0
-394 78 0
395 -79 0
-395 79 0
396 -80 0
-396 80 0
397 -81 0
-397 81 0
398 -82 0
-398 82 0
399 -83 0
-399 83 0
400 -84 0
-400 84 0
401 -85 0
-401 85 0
402 -86 0
-402 86 0
-341 -87 0
341 87 0
403 -88 0
-403 88 0
404 -89 0
-404 89 0
-341 -90 0
341 90 0
405 -91 0
-405 91 0
406 -92 0
-406 92 0
407 -93 0
-407 93 0
408 -94 0
-408 94 0
-341 -95 0
341 95 0
341 -96 0
-341 96 0
341 -97 0
-341 97 0
341 -98 0
-341 98 0
-19 -16 0
-19 11 0
19 16 -11 0
-20 16 0
-20 -11 0
20 -16 11 0
-21 -19 0
-21 -20 0
21 19 20 0
-22 -12 0
-22 7 0
22 12 -7 0
-23 12 0
-23 -7 0
23 -12 7 0
-24 -22 0
-24 -23 0
24 22 23 0
-25 -13 0
-25 8 0
25 13 -8 0
-26 13 0
-26 -8 0
26 -13 8 0
-27 -25 0
-27 -26 0
27 25 26 0
-28 24 0
-28 27 0
28 -24 -27 0
-29 -14 0
-29 9 0
29 14 -9 0
-30 14 0
-30 -9 0
30 -14 9 0
-31 -29 0
-31 -30 0
31 29 30 0
-32 -15 0
-32 10 0
32 15 -10 0
-33 15 0
-33 -10 0
33 -15 10 0
-34 -32 0
-34 -33 0
34 32 33 0
-35 31 0
-35 34 0
35 -31 -34 0
-36 28 0
-36 35 0
36 -28 -35 0
-37 21 0
-37 36 0
37 -21 -36 0
-38 18 0
-38 -17 0
38 -18 17 0
-39 -18 0
-39 17 0
39 18 -17 0
-40 -38 0
-40 -39 0
40 38 39 0
-41 37 0
-41 -40 0
41 -37 40 0
-42 11 0
-42 7 0
42 -11 -7 0
-43 -2 0
-43 1 0
43 2 -1 0
-44 2 0
-44 -1 0
44 -2 1 0
-45 -43 0
-45 -44 0
45 43 44 0
-46 -3 0
-46 -45 0
46 3 45 0
-47 3 0
-47 45 0
47 -3 -45 0
-48 -46 0
-48 -47 0
48 46 47 0
-49 42 0
-49 -48 0
49 -42 48 0
-50 10 0
-50 7 0
50 -10 -7 0
-51 -10 0
-51 42 0
51 10 -42 0
-52 -50 0
-52 -51 0
52 50 51 0
-53 -49 0
-53 -52 0
53 49 52 0
-54 -16 0
-54 53 0
54 16 -53 0
-55 16 0
-55 -53 0
55 -16 53 0
-56 -54 0
-56 -55 0
56 54 55 0
-57 4 0
-57 -50 0
57 -4 50 0
-58 8 0
-58 50 0
58 -8 -50 0
-59 -57 0
-59 -58 0
59 57 58 0
-60 -49 0
-60 -59 0
60 49 59 0
-61 8 0
-61 49 0
61 -8 -49 0
-62 -60 0
-62 -61 0
62 60 61 0
-63 -13 0
-63 -62 0
63 13 62 0
-64 13 0
-64 62 0
64 -13 -62 0
-65 -63 0
-65 -64 0
65 63 64 0
-66 12 0
-66 65 0
66 -12 -65 0
-67 5 0
-67 -50 0
67 -5 50 0
-68 9 0
-68 50 0
68 -9 -50 0
-69 -67 0
-69 -68 0
69 67 68 0
-70 -49 0
-70 -69 0
70 49 69 0
-71 9 0
-71 7 0
71 -9 -7 0
-72 71 0
-72 49 0
72 -71 -49 0
-73 -70 0
-73 -72 0
73 70 72 0
-74 -14 0
-74 -73 0
74 14 73 0
-75 14 0
-75 73 0
75 -14 -73 0
-76 -74 0
-76 -75 0
76 74 75 0
-77 6 0
-77 -50 0
77 -6 50 0
-78 -49 0
-78 77 0
78 49 -77 0
-79 50 0
-79 49 0
79 -50 -49 0
-80 -78 0
-80 -79 0
80 78 79 0
-81 -15 0
-81 -80 0
81 15 80 0
-82 15 0
-82 80 0
82 -15 -80 0
-83 -81 0
-83 -82 0
83 81 82 0
-84 76 0
-84 83 0
84 -76 -83 0
-85 66 0
-85 84 0
85 -66 -84 0
-86 56 0
-86 85 0
86 -56 -85 0
-87 86 0
-87 39 0
87 -86 -39 0
-88 71 0
-88 58 0
88 -71 -58 0
-89 88 0
-89 42 0
89 -88 -42 0
-90 17 0
-90 89 0
90 -17 -89 0
-91 -8 0
-91 -7 0
91 8 7 0
-92 -10 0
-92 -9 0
92 10 9 0
-93 91 0
-93 92 0
93 -91 -92 0
-94 -11 0
-94 93 0
94 11 -93 0
-95 -17 0
-95 94 0
95 17 -94 0
-96 -90 0
-96 -95 0
96 90 95 0
-97 -87 0
-97 96 0
97 87 -96 0
-98 -41 0
-98 97 0
98 41 -97 0
98 0
341 0
11 -342 0
-16 -342 0
-11 16 342 0
-11 -343 0
16 -343 0
11 -16 343 0
-19 -344 0
-20 -344 0
19 20 344 0
7 -345 0
-12 -345 0
-7 12 345 0
-7 -346 0
12 -346 0
7 -12 346 0
-22 -347 0
-23 -347 0
22 23 347 0
8 -348 0
-13 -348 0
-8 13 348 0
-8 -349 0
13 -349 0
8 -13 349 0
-25 -350 0
-26 -350 0
25 26 350 0
24 -351 0
27 -351 0
-24 -27 351 0
9 -352 0
-14 -352 0
-9 14 352 0
-9 -353 0
14 -353 0
9 -14 353 0
-29 -354 0
-30 -354 0
29 30 354 0
10 -355 0
-15 -355 0
-10 15 355 0
-10 -356 0
15 -356 0
10 -15 356 0
-32 -357 0
-33 -357 0
32 33 357 0
31 -358 0
34 -358 0
-31 -34 358 0
28 -359 0
35 -359 0
-28 -35 359 0
21 -360 0
36 -360 0
-21 -36 360 0
-38 -361 0
-39 -361 0
38 39 361 0
7 -362 0
11 -362 0
-7 -11 362 0
-43 -363 0
-44 -363 0
43 44 363 0
-46 -364 0
-47 -364 0
46 47 364 0
42 -365 0
-48 -365 0
-42 48 365 0
7 -366 0
10 -366 0
-7 -10 366 0
-10 -367 0
42 -367 0
10 -42 367 0
-50 -368 0
-51 -368 0
50 51 368 0
-49 -369 0
-52 -369 0
49 52 369 0
-16 -370 0
53 -370 0
16 -53 370 0
16 -371 0
-53 -371 0
-16 53 371 0
-54 -372 0
-55 -372 0
54 55 372 0
4 -373 0
-50 -373 0
-4 50 373 0
8 -374 0
50 -374 0
-8 -50 374 0
-57 -375 0
-58 -375 0
57 58 375 0
-49 -376 0
-59 -376 0
49 59 376 0
8 -377 0
49 -377 0
-8 -49 377 0
-60 -378 0
-61 -378 0
60 61 378 0
-13 -379 0
-62 -379 0
13 62 379 0
13 -380 0
62 -380 0
-13 -62 380 0
-63 -381 0
-64 -381 0
63 64 381 0
12 -382 0
65 -382 0
-12 -65 382 0
5 -383 0
-50 -383 0
-5 50 383 0
9 -384 0
50 -384 0
-9 -50 384 0
-67 -385 0
-68 -385 0
67 68 385 0
-49 -386 0
-69 -386 0
49 69 386 0
7 -387 0
9 -387 0
-7 -9 387 0
49 -388 0
71 -388 0
-49 -71 388 0
-70 -389 0
-72 -389 0
70 72 389 0
-14 -390 0
-73 -390 0
14 73 390 0
14 -391 0
73 -391 0
-14 -73 391 0
-74 -392 0
-75 -392 0
74 75 392 0
6 -393 0
-50 -393 0
-6 50 393 0
-49 -394 0
77 -394 0
49 -77 394 0
49 -395 0
50 -395 0
-49 -50 395 0
-78 -396 0
-79 -396 0
78 79 396 0
-15 -397 0
-80 -397 0
15 80 397 0
15 -398 0
80 -398 0
-15 -80 398 0
-81 -399 0
-82 -399 0
81 82 399 0
76 -400 0
83 -400 0
-76 -83 400 0
66 -401 0
84 -401 0
-66 -84 401 0
56 -402 0
85 -402 0
-56 -85 402 0
58 -403 0
71 -403 0
-58 -71 403 0
42 -404 0
88 -404 0
-42 -88 404 0
-7 -405 0
-8 -405 0
7 8 405 0
-9 -406 0
-10 -406 0
9 10 406 0
91 -407 0
92 -407 0
-91 -92 407 0
-11 -408 0
93 -408 0
11 -93 408 0
